row=12;
column=12;
Board=[|0,1,0,1,0,1,1,0,1,1,0,0|0,0,0,1,0,1,0,0,0,0,0,0|0,1,0,0,0,0,0,1,0,0,0,0|0,0,0,0,0,0,0,0,0,0,0,0|0,0,0,0,1,0,0,0,1,0,1,0|0,0,0,0,0,0,0,0,0,0,0,0|0,1,0,0,0,1,0,1,0,1,0,0|0,0,0,1,0,0,0,0,0,0,0,0|0,0,0,0,0,0,1,0,1,0,1,0|1,0,1,0,0,0,0,0,0,0,0,0|0,0,0,0,0,1,0,0,0,0,0,0|0,0,0,0,0,0,0,0,0,0,0,0|];
right = [4,0,2,3,0,4,0,4,1,3,2,1];
bottom = [2,3,1,2,2,3,1,3,2,1,4,0];
